c WARNING: for repeatability, setting FPU to use double precision
d VARIABLES            116908       
d CONSTRAINTS          523953       
c ============================[ Problem Statistics ]=============================
c |                                                                             |
c |  Number of variables:        116908                                         |
c |  Number of clauses:          523953                                         |
c |  Parse time:                   0.09 s                                       |
c |                                                                             |
c ============================[ Search Statistics ]==============================
c | Conflicts |          ORIGINAL         |          LEARNT          | Progress |
c |           |    Vars  Clauses Literals |    Limit  Clauses Lit/Cl |          |
c ===============================================================================
c |       100 |  100342   477257  1154714 |   174994       95    101 | 14.170 % |
c |       250 |  100342   477257  1154714 |   192493      245     90 | 14.170 % |
c |       475 |  100342   477257  1154714 |   211743      470    116 | 14.170 % |
c |       812 |  100342   476837  1153706 |   232917      803    170 | 14.170 % |
c |      1318 |  100342   476837  1153706 |   256209     1309    142 | 14.170 % |
c |      2077 |  100342   476837  1153706 |   281829     2068    114 | 14.170 % |
c |      3216 |  100342   476837  1153706 |   310012     3207    180 | 14.170 % |
c |      4924 |  100342   476837  1153706 |   341014     4915    177 | 14.170 % |
c |      7486 |  100342   476837  1153706 |   375115     7477    205 | 14.170 % |
c |     11330 |  100342   476837  1153706 |   412627    11321    177 | 14.170 % |
c |     17096 |  100342   476837  1153706 |   453889    17087    177 | 14.170 % |
c |     25745 |  100342   476837  1153706 |   499278    25736    183 | 14.170 % |
c |     38719 |  100342   476837  1153706 |   549206    38710    187 | 14.170 % |
c |     58180 |  100342   476837  1153706 |   604127    58171    209 | 14.170 % |
c |     87372 |  100338   476817  1153658 |   664540    87362    200 | 14.174 % |
c |    131161 |  100338   476817  1153658 |   730994   131151    228 | 14.174 % |
c |    196845 |  100337   476812  1153646 |   804093   196834    214 | 14.174 % |
c |    295371 |  100337   476812  1153646 |   884503   295360    254 | 14.174 % |
c |    443160 |  100337   476812  1153646 |   972953   443149    253 | 14.174 % |
c |    664843 |  100337   476812  1153646 |  1070248   664832    255 | 14.174 % |
c |    997368 |  100328   476767  1153538 |  1177273   997355    256 | 14.182 % |
c |   1496156 |  100316   476707  1153394 |  1295001   341259    197 | 14.192 % |
c ===============================================================================
c restarts              : 3770
c conflicts             : 1931688        (1079 /sec)
c decisions             : 5238150        (0.00 % random) (2925 /sec)
c propagations          : 4691016310     (2619772 /sec)
c conflict literals     : 450641968      (43.37 % deleted)
d RESTARTS             3770
d FAILURES             1931688      
d NODES                5238150      
d BACKTRACKS           5238150      
d PROPAGATIONS         4691016310   
d NOGOODSIZE           233.29 
d MEMORY               1592.00 
d TIME                 1790.62 

s UNKNOWN
